(set-info :smt-lib-version 2.6)
(set-logic QF_UF)
(set-info :source |
Generated by: David Deharbe, CLEARSY
Generated on: 2019-09-06
Generator: bxml;pog;pog2smt (Atelier B)
Application: B-method
Target solver: CVC4, Z3
|)
(set-info :license "https://creativecommons.org/licenses/by-nc/4.0/")
(set-info :category "industrial")
(set-info :status unknown)
; Prelude
(declare-sort U 0)
(declare-fun |*i| (U U) U)
(declare-fun |+i| (U U) U)
(declare-fun |-i| (U U) U)
(declare-fun idiv (U U) U)
(declare-fun |*r| (U U) U)
(declare-fun |+r| (U U) U)
(declare-fun |-r| (U U) U)
(declare-fun rdiv (U U) U)
(declare-fun modulo (U U) U)
(declare-fun |<i| (U U) Bool)
(declare-fun |<=i| (U U) Bool)
(declare-fun |>i| (U U) Bool)
(declare-fun |>=i| (U U) Bool)
(declare-fun |<r| (U U) Bool)
(declare-fun |<=r| (U U) Bool)
(declare-fun |>r| (U U) Bool)
(declare-fun |>=r| (U U) Bool)
(declare-fun iuminus (U) U)
(declare-fun ruminus (U) U)
(declare-fun TRUE () U)
(declare-fun FALSE () U)
(assert (not (= TRUE FALSE)))
(declare-fun empty () U)
(declare-fun bool (Bool) U)
(declare-fun BOOL () U)
(declare-fun INT () U)
(declare-fun INTEGER () U)
(declare-fun NAT () U)
(declare-fun NAT1 () U)
(declare-fun NATURAL () U)
(declare-fun NATURAL1 () U)
(declare-fun FLOAT () U)
(declare-fun MaxInt () U)
(declare-fun MinInt () U)
(declare-fun |STRING| () U)
(declare-fun REAL () U)
(declare-fun set_prod (U U) U)
(declare-fun set_diff (U U) U)
(declare-fun mapplet (U U) U)
(declare-fun |**i| (U U) U)
(declare-fun |**r| (U U) U)
(declare-fun |+->| (U U) U)
(declare-fun |+->>| (U U) U)
(declare-fun |-->| (U U) U)
(declare-fun |-->>| (U U) U)
(declare-fun |<->| (U U) U)
(declare-fun |>+>| (U U) U)
(declare-fun |>->| (U U) U)
(declare-fun |>+>>| (U U) U)
(declare-fun |>->>| (U U) U)
(declare-fun |->| (U U) U)
(declare-fun interval (U U) U)
(declare-fun composition (U U) U)
(declare-fun binary_inter (U U) U)
(declare-fun restriction_head (U U) U)
(declare-fun semicolon (U U) U)
(declare-fun |<+| (U U) U)
(declare-fun |<-| (U U) U)
(declare-fun domain_subtraction (U U) U)
(declare-fun domain_restriction (U U) U)
(declare-fun |><| (U U) U)
(declare-fun parallel_product (U U) U)
(declare-fun binary_union (U U) U)
(declare-fun restriction_tail (U U) U)
(declare-fun concatenate (U U) U)
(declare-fun range_restriction (U U) U)
(declare-fun range_subtraction (U U) U)
(declare-fun image (U U) U)
(declare-fun apply (U U) U)
(declare-fun prj1 (U U) U)
(declare-fun prj2 (U U) U)
(declare-fun iterate (U U) U)
(declare-fun |const| (U U) U)
(declare-fun rank (U U) U)
(declare-fun father (U U) U)
(declare-fun subtree (U U) U)
(declare-fun arity (U U) U)
(declare-fun |+f| (U U) U)
(declare-fun |-f| (U U) U)
(declare-fun |*f| (U U) U)
(declare-fun |fdiv| (U U) U)
(declare-fun tbin (U U U) U)
(declare-fun son (U U U) U)
(declare-fun mem (U U) Bool)
(declare-fun subset (U U) Bool)
(declare-fun strict_subset (U U) Bool)
(declare-fun |<=f| (U U) Bool)
(declare-fun |<f| (U U) Bool)
(declare-fun |>=f| (U U) Bool)
(declare-fun |>f| (U U) Bool)
(declare-fun imax (U) U)
(declare-fun imin (U) U)
(declare-fun rmax (U) U)
(declare-fun rmin (U) U)
(declare-fun card (U) U)
(declare-fun dom (U) U)
(declare-fun ran (U) U)
(declare-fun POW (U) U)
(declare-fun POW1 (U) U)
(declare-fun FIN (U) U)
(declare-fun FIN1 (U) U)
(declare-fun union (U) U)
(declare-fun inter (U) U)
(declare-fun seq (U) U)
(declare-fun seq1 (U) U)
(declare-fun iseq (U) U)
(declare-fun iseq1 (U) U)
(declare-fun inverse (U) U)
(declare-fun size (U) U)
(declare-fun perm (U) U)
(declare-fun first (U) U)
(declare-fun last (U) U)
(declare-fun id (U) U)
(declare-fun closure (U) U)
(declare-fun closure1 (U) U)
(declare-fun tail (U) U)
(declare-fun front (U) U)
(declare-fun reverse (U) U)
(declare-fun rev (U) U)
(declare-fun conc (U) U)
(declare-fun succ (U) U)
(declare-fun pred (U) U)
(declare-fun rel (U) U)
(declare-fun fnc (U) U)
(declare-fun real (U) U)
(declare-fun floor (U) U)
(declare-fun ceiling (U) U)
(declare-fun tree (U) U)
(declare-fun btree (U) U)
(declare-fun top (U) U)
(declare-fun sons (U) U)
(declare-fun prefix (U) U)
(declare-fun postfix (U) U)
(declare-fun sizet (U) U)
(declare-fun mirror (U) U)
(declare-fun left (U) U)
(declare-fun right (U) U)
(declare-fun infix (U) U)
(declare-fun ubin (U) U)
(declare-fun SEQ (U) U)
(declare-fun SET (U) U)
; Opaque formulas
(declare-fun e39 () U)
(declare-fun e0 () U)
(declare-fun e103 () U)
(declare-fun e136 () U)
(declare-fun e138 () U)
(declare-fun e141 () U)
(declare-fun e215 () U)
(declare-fun e152 () U)
(declare-fun e29 () U)
(declare-fun e161 () U)
(declare-fun e147 () U)
(declare-fun e271 () U)
(declare-fun e269 () U)
(declare-fun e209 () U)
(declare-fun e350 () U)
(declare-fun e211 () U)
(declare-fun e25 () U)
(declare-fun e188 () U)
(declare-fun e231 () U)
(declare-fun e276 () U)
(declare-fun e281 () U)
(declare-fun e283 () U)
(declare-fun e96 () U)
(declare-fun e206 () U)
(declare-fun e285 () U)
(declare-fun e159 () U)
(declare-fun e21 () U)
(declare-fun e219 () U)
(declare-fun e168 () U)
(declare-fun e249 () U)
(declare-fun e352 () U)
(declare-fun e143 () U)
(declare-fun e164 () U)
(declare-fun e166 () U)
(declare-fun e244 () U)
(declare-fun e157 () U)
(declare-fun e34 () U)
(declare-fun e247 () U)
(declare-fun e351 () U)
(declare-fun e22 () U)
(declare-fun e252 () U)
(declare-fun e258 () U)
(declare-fun e180 () U)
(declare-fun e186 () U)
(declare-fun e178 () U)
(declare-fun e184 () U)
(declare-fun e182 () U)
(declare-fun e267 () U)
(declare-fun e174 () U)
(declare-fun e172 () U)
(declare-fun e176 () U)
(declare-fun e170 () U)
(declare-fun e49 () U)
(declare-fun e197 () U)
(declare-fun e37 () U)
(declare-fun e52 () U)
(declare-fun e202 () U)
(declare-fun e41 () U)
(declare-fun g_s0_1 () U)
(declare-fun g_s1_2 () U)
(declare-fun g_s10_11 () U)
(declare-fun g_s100_113 () U)
(declare-fun g_s101_114 () U)
(declare-fun g_s102_115 () U)
(declare-fun g_s103_116 () U)
(declare-fun g_s104_117 () U)
(declare-fun g_s105_118 () U)
(declare-fun g_s106_119 () U)
(declare-fun g_s107_120 () U)
(declare-fun g_s108_121 () U)
(declare-fun g_s109_122 () U)
(declare-fun g_s11_12 () U)
(declare-fun g_s110_123 () U)
(declare-fun g_s111_124 () U)
(declare-fun g_s112_125 () U)
(declare-fun g_s113_126 () U)
(declare-fun g_s114_127 () U)
(declare-fun g_s115_128 () U)
(declare-fun g_s116_129 () U)
(declare-fun g_s117_130 () U)
(declare-fun g_s118_131 () U)
(declare-fun g_s119_132 () U)
(declare-fun g_s12_13 () U)
(declare-fun g_s120_133 () U)
(declare-fun g_s121_134 () U)
(declare-fun g_s122_135 () U)
(declare-fun g_s123_137 () U)
(declare-fun g_s124_139 () U)
(declare-fun g_s125_140 () U)
(declare-fun g_s126_142 () U)
(declare-fun g_s127_144 () U)
(declare-fun g_s128_145 () U)
(declare-fun g_s129_146 () U)
(declare-fun g_s13_14 () U)
(declare-fun g_s130_148 () U)
(declare-fun g_s131_149 () U)
(declare-fun g_s132_150 () U)
(declare-fun g_s133_151 () U)
(declare-fun g_s134_153 () U)
(declare-fun g_s135_154 () U)
(declare-fun g_s136_155 () U)
(declare-fun g_s137_156 () U)
(declare-fun g_s138_158 () U)
(declare-fun g_s139_160 () U)
(declare-fun g_s14_15 () U)
(declare-fun g_s140_162 () U)
(declare-fun g_s141_163 () U)
(declare-fun g_s142_165 () U)
(declare-fun g_s143_167 () U)
(declare-fun g_s144_169 () U)
(declare-fun g_s145_171 () U)
(declare-fun g_s146_173 () U)
(declare-fun g_s147_175 () U)
(declare-fun g_s148_177 () U)
(declare-fun g_s149_179 () U)
(declare-fun g_s15_16 () U)
(declare-fun g_s150_181 () U)
(declare-fun g_s151_183 () U)
(declare-fun g_s152_185 () U)
(declare-fun g_s153_187 () U)
(declare-fun g_s154_189 () U)
(declare-fun g_s155_190 () U)
(declare-fun g_s156_191 () U)
(declare-fun g_s157_192 () U)
(declare-fun g_s158_193 () U)
(declare-fun g_s159_194 () U)
(declare-fun g_s16_17 () U)
(declare-fun g_s160_195 () U)
(declare-fun g_s161_196 () U)
(declare-fun g_s162_198 () U)
(declare-fun g_s163_199 () U)
(declare-fun g_s164_200 () U)
(declare-fun g_s165_201 () U)
(declare-fun g_s166_203 () U)
(declare-fun g_s167_204 () U)
(declare-fun g_s168_205 () U)
(declare-fun g_s169_207 () U)
(declare-fun g_s17_18 () U)
(declare-fun g_s170_208 () U)
(declare-fun g_s171_210 () U)
(declare-fun g_s172_212 () U)
(declare-fun g_s173_213 () U)
(declare-fun g_s174_214 () U)
(declare-fun g_s175_216 () U)
(declare-fun g_s176_217 () U)
(declare-fun g_s177_218 () U)
(declare-fun g_s178_220 () U)
(declare-fun g_s179_221 () U)
(declare-fun g_s18_19 () U)
(declare-fun g_s180_222 () U)
(declare-fun g_s181_223 () U)
(declare-fun g_s182_224 () U)
(declare-fun g_s183_225 () U)
(declare-fun g_s184_226 () U)
(declare-fun g_s185_227 () U)
(declare-fun g_s186_228 () U)
(declare-fun g_s187_229 () U)
(declare-fun g_s188_230 () U)
(declare-fun g_s189_232 () U)
(declare-fun g_s19_20 () U)
(declare-fun g_s190_233 () U)
(declare-fun g_s191_234 () U)
(declare-fun g_s192_235 () U)
(declare-fun g_s193_236 () U)
(declare-fun g_s194_237 () U)
(declare-fun g_s195_238 () U)
(declare-fun g_s196_239 () U)
(declare-fun g_s197_240 () U)
(declare-fun g_s198_241 () U)
(declare-fun g_s199_242 () U)
(declare-fun g_s2_3 () U)
(declare-fun g_s20_23 () U)
(declare-fun g_s200_243 () U)
(declare-fun g_s201_245 () U)
(declare-fun g_s202_246 () U)
(declare-fun g_s203_248 () U)
(declare-fun g_s204_250 () U)
(declare-fun g_s205_251 () U)
(declare-fun g_s206_253 () U)
(declare-fun g_s207_254 () U)
(declare-fun g_s208_255 () U)
(declare-fun g_s209_256 () U)
(declare-fun g_s21_24 () U)
(declare-fun g_s210_257 () U)
(declare-fun g_s211_259 () U)
(declare-fun g_s212_260 () U)
(declare-fun g_s213_261 () U)
(declare-fun g_s214_262 () U)
(declare-fun g_s215_263 () U)
(declare-fun g_s216_264 () U)
(declare-fun g_s217_265 () U)
(declare-fun g_s218_266 () U)
(declare-fun g_s219_268 () U)
(declare-fun g_s22_26 () U)
(declare-fun g_s220_270 () U)
(declare-fun g_s221_272 () U)
(declare-fun g_s222_273 () U)
(declare-fun g_s223_274 () U)
(declare-fun g_s224_275 () U)
(declare-fun g_s225_277 () U)
(declare-fun g_s226_278 () U)
(declare-fun g_s227_279 () U)
(declare-fun g_s228_280 () U)
(declare-fun g_s229_282 () U)
(declare-fun g_s23_27 () U)
(declare-fun g_s230_284 () U)
(declare-fun g_s231_286 () U)
(declare-fun g_s232_287 () U)
(declare-fun g_s233_288 () U)
(declare-fun g_s234_289 () U)
(declare-fun g_s235_290 () U)
(declare-fun g_s236_291 () U)
(declare-fun g_s237_292 () U)
(declare-fun g_s238_293 () U)
(declare-fun g_s239_294 () U)
(declare-fun g_s24_28 () U)
(declare-fun g_s240_295 () U)
(declare-fun g_s241_296 () U)
(declare-fun g_s242_297 () U)
(declare-fun g_s243_298 () U)
(declare-fun g_s244_299 () U)
(declare-fun g_s245_300 () U)
(declare-fun g_s246_301 () U)
(declare-fun g_s247_302 () U)
(declare-fun g_s248_303 () U)
(declare-fun g_s249_304 () U)
(declare-fun g_s25_30 () U)
(declare-fun g_s250_305 () U)
(declare-fun g_s251_306 () U)
(declare-fun g_s252_307 () U)
(declare-fun g_s253_308 () U)
(declare-fun g_s254_309 () U)
(declare-fun g_s255_310 () U)
(declare-fun g_s256_311 () U)
(declare-fun g_s257_312 () U)
(declare-fun g_s258_313 () U)
(declare-fun g_s259_314 () U)
(declare-fun g_s26_31 () U)
(declare-fun g_s260_315 () U)
(declare-fun g_s261_316 () U)
(declare-fun g_s262_317 () U)
(declare-fun g_s263_318 () U)
(declare-fun g_s264_319 () U)
(declare-fun g_s265_320 () U)
(declare-fun g_s266_321 () U)
(declare-fun g_s267_322 () U)
(declare-fun g_s268_323 () U)
(declare-fun g_s269_324 () U)
(declare-fun g_s27_32 () U)
(declare-fun g_s270_325 () U)
(declare-fun g_s271_326 () U)
(declare-fun g_s272_327 () U)
(declare-fun g_s273_328 () U)
(declare-fun g_s274_329 () U)
(declare-fun g_s275_330 () U)
(declare-fun g_s276_331 () U)
(declare-fun g_s277_332 () U)
(declare-fun g_s278_333 () U)
(declare-fun g_s279_334 () U)
(declare-fun g_s28_33 () U)
(declare-fun g_s280_335 () U)
(declare-fun g_s281_336 () U)
(declare-fun g_s282_337 () U)
(declare-fun g_s283_338 () U)
(declare-fun g_s284_339 () U)
(declare-fun g_s285_340 () U)
(declare-fun g_s286_341 () U)
(declare-fun g_s287_342 () U)
(declare-fun g_s288_343 () U)
(declare-fun g_s289_344 () U)
(declare-fun g_s29_35 () U)
(declare-fun g_s290_345 () U)
(declare-fun g_s291_346 () U)
(declare-fun g_s292_347 () U)
(declare-fun g_s293_348 () U)
(declare-fun g_s294_349 () U)
(declare-fun g_s3_4 () U)
(declare-fun g_s30_36 () U)
(declare-fun g_s31_38 () U)
(declare-fun g_s32_40 () U)
(declare-fun g_s33_42 () U)
(declare-fun g_s34_43 () U)
(declare-fun g_s35_44 () U)
(declare-fun g_s36_45 () U)
(declare-fun g_s37_46 () U)
(declare-fun g_s38_47 () U)
(declare-fun g_s39_48 () U)
(declare-fun g_s4_5 () U)
(declare-fun g_s40_50 () U)
(declare-fun g_s41_51 () U)
(declare-fun g_s42_53 () U)
(declare-fun g_s43_54 () U)
(declare-fun g_s44_55 () U)
(declare-fun g_s45_56 () U)
(declare-fun g_s46_57 () U)
(declare-fun g_s47_58 () U)
(declare-fun g_s48_59 () U)
(declare-fun g_s49_60 () U)
(declare-fun g_s5_6 () U)
(declare-fun g_s50_61 () U)
(declare-fun g_s51_62 () U)
(declare-fun g_s52_63 () U)
(declare-fun g_s53_64 () U)
(declare-fun g_s54_65 () U)
(declare-fun g_s55_66 () U)
(declare-fun g_s56_67 () U)
(declare-fun g_s57_68 () U)
(declare-fun g_s58_69 () U)
(declare-fun g_s59_70 () U)
(declare-fun g_s6_7 () U)
(declare-fun g_s60_71 () U)
(declare-fun g_s61_72 () U)
(declare-fun g_s62_73 () U)
(declare-fun g_s63_74 () U)
(declare-fun g_s64_75 () U)
(declare-fun g_s65_76 () U)
(declare-fun g_s66_77 () U)
(declare-fun g_s67_78 () U)
(declare-fun g_s68_79 () U)
(declare-fun g_s69_80 () U)
(declare-fun g_s7_8 () U)
(declare-fun g_s70_81 () U)
(declare-fun g_s71_82 () U)
(declare-fun g_s72_83 () U)
(declare-fun g_s73_84 () U)
(declare-fun g_s74_85 () U)
(declare-fun g_s75_86 () U)
(declare-fun g_s76_87 () U)
(declare-fun g_s77_88 () U)
(declare-fun g_s78_89 () U)
(declare-fun g_s79_90 () U)
(declare-fun g_s8_9 () U)
(declare-fun g_s80_91 () U)
(declare-fun g_s81_92 () U)
(declare-fun g_s82_93 () U)
(declare-fun g_s83_94 () U)
(declare-fun g_s84_95 () U)
(declare-fun g_s85_97 () U)
(declare-fun g_s86_98 () U)
(declare-fun g_s87_99 () U)
(declare-fun g_s88_100 () U)
(declare-fun g_s89_101 () U)
(declare-fun g_s9_10 () U)
(declare-fun g_s90_102 () U)
(declare-fun g_s91_104 () U)
(declare-fun g_s92_105 () U)
(declare-fun g_s93_106 () U)
(declare-fun g_s94_107 () U)
(declare-fun g_s95_108 () U)
(declare-fun g_s96_109 () U)
(declare-fun g_s97_110 () U)
(declare-fun g_s98_111 () U)
(declare-fun g_s99_112 () U)
; Defines
(define-fun |def_B definitions| () Bool (and (= NAT (interval e0 MaxInt)) (= INT (interval MinInt MaxInt))))
(define-fun |def_ctx| () Bool (and (= g_s0_1 INT) (= g_s1_2 NAT) (= g_s2_3 NAT1) (subset g_s2_3 g_s1_2) (subset g_s1_2 g_s0_1) (= g_s3_4 INT) (= g_s4_5 NAT) (subset g_s4_5 g_s3_4) (mem g_s5_6 g_s0_1) (mem g_s5_6 g_s1_2) (not (mem g_s5_6 g_s2_3)) (mem g_s6_7 g_s0_1) (not (mem g_s6_7 g_s1_2)) (mem g_s7_8 g_s3_4) (mem g_s7_8 g_s4_5) (mem g_s8_9 g_s3_4) (not (mem g_s8_9 g_s4_5)) (= g_s9_10 INT) (= g_s10_11 INT) (= g_s11_12 NATURAL) (= g_s12_13 NATURAL) (mem g_s13_14 NAT1) (= g_s13_14 MaxInt) (mem g_s14_15 NAT1) (mem g_s15_16 NAT1) (= g_s15_16 MaxInt) (mem g_s16_17 NAT1) (mem g_s17_18 NAT1) (mem g_s18_19 NAT1) (mem g_s19_20 NAT1) (= g_s18_19 e21) (= g_s19_20 e22) (mem g_s20_23 INTEGER) (= g_s20_23 e0) (mem g_s21_24 INTEGER) (= g_s21_24 e25) (mem g_s22_26 INTEGER) (= g_s22_26 e0) (mem g_s23_27 INTEGER) (= g_s23_27 e0) (mem g_s24_28 INTEGER) (= g_s24_28 e29) (mem g_s25_30 INTEGER) (= g_s25_30 e0) (mem g_s26_31 INTEGER) (= g_s26_31 e0) (mem g_s27_32 INTEGER) (= g_s27_32 e0) (mem g_s28_33 INTEGER) (= g_s28_33 e34) (mem g_s29_35 INTEGER) (= g_s29_35 e0) (mem g_s30_36 INTEGER) (= g_s30_36 e37) (mem g_s31_38 INTEGER) (= g_s31_38 e39) (mem g_s32_40 INTEGER) (= g_s32_40 e41) (mem g_s33_42 INTEGER) (= g_s33_42 e0) (mem g_s34_43 INTEGER) (= g_s34_43 e37) (mem g_s35_44 INTEGER) (= g_s35_44 e0) (mem g_s36_45 INTEGER) (= g_s36_45 e0) (mem g_s37_46 INTEGER) (= g_s37_46 e0) (mem g_s38_47 INTEGER) (= g_s38_47 e0) (mem g_s39_48 INTEGER) (= g_s39_48 e49) (mem g_s40_50 INTEGER) (= g_s40_50 e0) (mem g_s41_51 INTEGER) (= g_s41_51 e52) (mem g_s42_53 INTEGER) (= g_s42_53 e0) (mem g_s43_54 INTEGER) (= g_s43_54 e0) (mem g_s44_55 INTEGER) (= g_s44_55 e0) (mem g_s45_56 INTEGER) (= g_s45_56 e0) (mem g_s46_57 INTEGER) (= g_s46_57 e0) (mem g_s47_58 INTEGER) (= g_s47_58 e0) (mem g_s48_59 INTEGER) (= g_s48_59 e0) (mem g_s49_60 INTEGER) (= g_s49_60 e0) (mem g_s50_61 INTEGER) (= g_s50_61 e0) (mem g_s51_62 INTEGER) (= g_s51_62 e0) (mem g_s52_63 INTEGER) (= g_s52_63 e0) (mem g_s53_64 INTEGER) (= g_s53_64 e49) (mem g_s54_65 INTEGER) (= g_s54_65 e0) (mem g_s55_66 INTEGER) (= g_s55_66 e49) (mem g_s56_67 INTEGER) (= g_s56_67 e0) (mem g_s57_68 INTEGER) (= g_s57_68 e52) (mem g_s58_69 INTEGER) (= g_s58_69 e0) (mem g_s59_70 INTEGER) (= g_s59_70 e0) (mem g_s60_71 INTEGER) (= g_s60_71 e49) (mem g_s61_72 INTEGER) (= g_s61_72 e0) (mem g_s62_73 INTEGER) (= g_s62_73 e52) (mem g_s63_74 INTEGER) (= g_s63_74 e0) (mem g_s64_75 INTEGER) (= g_s64_75 e0) (mem g_s65_76 INTEGER) (= g_s65_76 e0) (mem g_s66_77 INTEGER) (= g_s66_77 e0) (mem g_s67_78 INTEGER) (= g_s67_78 e0) (mem g_s68_79 INTEGER) (= g_s68_79 e0) (mem g_s69_80 INTEGER) (= g_s69_80 e0) (mem g_s70_81 INTEGER) (= g_s70_81 e0) (mem g_s71_82 INTEGER) (= g_s71_82 e0) (mem g_s72_83 INTEGER) (= g_s72_83 e0) (mem g_s73_84 INTEGER) (= g_s73_84 e0) (mem g_s74_85 INTEGER) (= g_s74_85 e0) (mem g_s75_86 INTEGER) (= g_s75_86 e0) (mem g_s76_87 INTEGER) (= g_s76_87 e0) (mem g_s77_88 INTEGER) (= g_s77_88 e0) (mem g_s78_89 INTEGER) (= g_s78_89 e0) (mem g_s79_90 INTEGER) (= g_s79_90 e0) (mem g_s80_91 INTEGER) (= g_s80_91 e0) (mem g_s81_92 INTEGER) (= g_s81_92 e0) (mem g_s82_93 INTEGER) (= g_s82_93 e0) (mem g_s83_94 INTEGER) (= g_s83_94 e0) (mem g_s84_95 INTEGER) (= g_s84_95 e96) (mem g_s85_97 INTEGER) (= g_s85_97 e0) (mem g_s86_98 INTEGER) (= g_s86_98 e37) (mem g_s87_99 INTEGER) (= g_s87_99 e0) (mem g_s88_100 INTEGER) (= g_s88_100 e0) (mem g_s89_101 INTEGER) (= g_s89_101 e0) (mem g_s90_102 INTEGER) (= g_s90_102 e103) (mem g_s91_104 INTEGER) (= g_s91_104 e103) (mem g_s92_105 INTEGER) (= g_s92_105 e103) (mem g_s93_106 INTEGER) (= g_s93_106 e103) (mem g_s94_107 INTEGER) (= g_s94_107 e103) (mem g_s95_108 INTEGER) (= g_s95_108 e103) (mem g_s96_109 INTEGER) (= g_s96_109 e103) (mem g_s97_110 INTEGER) (= g_s97_110 e103) (mem g_s98_111 INTEGER) (= g_s98_111 e103) (mem g_s99_112 INTEGER) (= g_s99_112 e103) (mem g_s100_113 INTEGER) (= g_s100_113 e103) (mem g_s101_114 INTEGER) (= g_s101_114 e103) (mem g_s102_115 INTEGER) (= g_s102_115 e103) (mem g_s103_116 INTEGER) (= g_s103_116 e103) (mem g_s104_117 INTEGER) (= g_s104_117 e103) (mem g_s105_118 INTEGER) (= g_s105_118 e0) (mem g_s106_119 INTEGER) (= g_s106_119 e103) (mem g_s107_120 INTEGER) (= g_s107_120 e0) (mem g_s108_121 INTEGER) (= g_s108_121 e103) (mem g_s109_122 INTEGER) (= g_s109_122 e103) (mem g_s110_123 INTEGER) (= g_s110_123 e103) (mem g_s111_124 INTEGER) (= g_s111_124 e103) (mem g_s112_125 INTEGER) (= g_s112_125 e103) (mem g_s113_126 INTEGER) (= g_s113_126 e103) (mem g_s114_127 INTEGER) (= g_s114_127 e103) (mem g_s115_128 INTEGER) (= g_s115_128 e103) (mem g_s116_129 INTEGER) (= g_s116_129 e103) (mem g_s117_130 INTEGER) (= g_s117_130 e103) (mem g_s118_131 INTEGER) (= g_s118_131 e103) (mem g_s119_132 INTEGER) (= g_s119_132 e103) (mem g_s120_133 INTEGER) (= g_s120_133 e0) (mem g_s121_134 INTEGER) (= g_s121_134 e103) (mem g_s122_135 INTEGER) (= g_s122_135 e136) (mem g_s123_137 INTEGER) (= g_s123_137 e138) (mem g_s124_139 INTEGER) (= g_s124_139 e37) (mem g_s125_140 INTEGER) (= g_s125_140 e141) (mem g_s126_142 INTEGER) (= g_s126_142 e143) (mem g_s127_144 INTEGER) (= g_s127_144 e25) (mem g_s128_145 INTEGER) (= g_s128_145 e41) (mem g_s129_146 INTEGER) (= g_s129_146 e147) (mem g_s130_148 INTEGER) (= g_s130_148 e136) (mem g_s131_149 INTEGER) (= g_s131_149 e136) (mem g_s132_150 INTEGER) (= g_s132_150 e141) (mem g_s133_151 INTEGER) (= g_s133_151 e152) (mem g_s134_153 INTEGER) (= g_s134_153 e136) (mem g_s135_154 INTEGER) (= g_s135_154 e152) (mem g_s136_155 INTEGER) (= g_s136_155 e152) (mem g_s137_156 INTEGER) (= g_s137_156 e157) (mem g_s138_158 INTEGER) (= g_s138_158 e159) (mem g_s139_160 INTEGER) (= g_s139_160 e161) (mem g_s140_162 INTEGER) (= g_s140_162 e0) (mem g_s141_163 INTEGER) (= g_s141_163 e164) (mem g_s142_165 INTEGER) (= g_s142_165 e166) (mem g_s143_167 INTEGER) (= g_s143_167 e168) (mem g_s144_169 INTEGER) (= g_s144_169 e170) (mem g_s145_171 INTEGER) (= g_s145_171 e172) (mem g_s146_173 INTEGER) (= g_s146_173 e174) (mem g_s147_175 INTEGER) (= g_s147_175 e176) (mem g_s148_177 INTEGER) (= g_s148_177 e178) (mem g_s149_179 INTEGER) (= g_s149_179 e180) (mem g_s150_181 INTEGER) (= g_s150_181 e182) (mem g_s151_183 INTEGER) (= g_s151_183 e184) (mem g_s152_185 INTEGER) (= g_s152_185 e186) (mem g_s153_187 INTEGER) (= g_s153_187 e188) (mem g_s154_189 INTEGER) (= g_s154_189 e0) (mem g_s155_190 INTEGER) (= g_s155_190 e0) (mem g_s156_191 INTEGER) (= g_s156_191 e0) (mem g_s157_192 INTEGER) (= g_s157_192 e0) (mem g_s158_193 INTEGER) (= g_s158_193 e0) (mem g_s159_194 INTEGER) (= g_s159_194 e0) (mem g_s160_195 INTEGER) (= g_s160_195 e37) (mem g_s161_196 INTEGER) (= g_s161_196 e197) (mem g_s162_198 INTEGER) (= g_s162_198 e52) (mem g_s163_199 INTEGER) (= g_s163_199 e49) (mem g_s164_200 INTEGER) (= g_s164_200 e52) (mem g_s165_201 INTEGER) (= g_s165_201 e202) (mem g_s166_203 INTEGER) (= g_s166_203 e136) (mem g_s167_204 INTEGER) (= g_s167_204 e152) (mem g_s168_205 INTEGER) (= g_s168_205 e206) (mem g_s169_207 INTEGER) (= g_s169_207 e206) (mem g_s170_208 INTEGER) (= g_s170_208 e209) (mem g_s171_210 INTEGER) (= g_s171_210 e211) (mem g_s172_212 INTEGER) (= g_s172_212 e37) (mem g_s173_213 INTEGER) (= g_s173_213 e49) (mem g_s174_214 INTEGER) (= g_s174_214 e215) (mem g_s175_216 INTEGER) (= g_s175_216 e37) (mem g_s176_217 INTEGER) (= g_s176_217 e37) (mem g_s177_218 INTEGER) (= g_s177_218 e219) (mem g_s178_220 INTEGER) (= g_s178_220 e206) (mem g_s179_221 INTEGER) (= g_s179_221 e25) (mem g_s180_222 INTEGER) (= g_s180_222 e206) (mem g_s181_223 INTEGER) (= g_s181_223 e34) (mem g_s182_224 INTEGER) (= g_s182_224 e34) (mem g_s183_225 INTEGER) (= g_s183_225 e34) (mem g_s184_226 INTEGER) (= g_s184_226 e34) (mem g_s185_227 INTEGER) (= g_s185_227 e34) (mem g_s186_228 INTEGER) (= g_s186_228 e34) (mem g_s187_229 INTEGER) (= g_s187_229 e21) (mem g_s188_230 INTEGER) (= g_s188_230 e231) (mem g_s189_232 INTEGER) (= g_s189_232 e206) (mem g_s190_233 INTEGER) (= g_s190_233 e159) (mem g_s191_234 INTEGER) (= g_s191_234 e22) (mem g_s192_235 INTEGER) (= g_s192_235 e0) (mem g_s193_236 INTEGER) (= g_s193_236 e22) (mem g_s194_237 INTEGER) (= g_s194_237 e25) (mem g_s195_238 INTEGER) (= g_s195_238 e159) (mem g_s196_239 INTEGER) (= g_s196_239 e22) (mem g_s197_240 INTEGER) (= g_s197_240 e209) (mem g_s198_241 INTEGER) (= g_s198_241 e209) (mem g_s199_242 INTEGER) (= g_s199_242 e29) (mem g_s200_243 INTEGER) (= g_s200_243 e244) (mem g_s201_245 INTEGER) (= g_s201_245 e159) (mem g_s202_246 INTEGER) (= g_s202_246 e247) (mem g_s203_248 INTEGER) (= g_s203_248 e249) (mem g_s204_250 INTEGER) (= g_s204_250 e37) (mem g_s205_251 INTEGER) (= g_s205_251 e252) (mem g_s206_253 INTEGER) (= g_s206_253 e188) (mem g_s207_254 INTEGER) (= g_s207_254 e25) (mem g_s208_255 INTEGER) (= g_s208_255 e37) (mem g_s209_256 INTEGER) (= g_s209_256 e37) (mem g_s210_257 INTEGER) (= g_s210_257 e258) (mem g_s211_259 INTEGER) (= g_s211_259 e22) (mem g_s212_260 INTEGER) (= g_s212_260 e209) (mem g_s213_261 INTEGER) (= g_s213_261 e21) (mem g_s214_262 INTEGER) (= g_s214_262 e21) (mem g_s215_263 INTEGER) (= g_s215_263 e21) (mem g_s216_264 INTEGER) (= g_s216_264 e41) (mem g_s217_265 INTEGER) (= g_s217_265 e37) (mem g_s218_266 INTEGER) (= g_s218_266 e267) (mem g_s219_268 INTEGER) (= g_s219_268 e269) (mem g_s220_270 INTEGER) (= g_s220_270 e271) (mem g_s221_272 INTEGER) (= g_s221_272 e0) (mem g_s222_273 INTEGER) (= g_s222_273 e37) (mem g_s223_274 INTEGER) (= g_s223_274 e269) (mem g_s224_275 INTEGER) (= g_s224_275 e276) (mem g_s225_277 INTEGER) (= g_s225_277 e161) (mem g_s226_278 INTEGER) (= g_s226_278 e141) (mem g_s227_279 INTEGER) (= g_s227_279 e141) (mem g_s228_280 INTEGER) (= g_s228_280 e281) (mem g_s229_282 INTEGER) (= g_s229_282 e283) (mem g_s230_284 INTEGER) (= g_s230_284 e285)))
(define-fun |def_seext| () Bool true)
(define-fun |def_mchcst| () Bool true)
(define-fun |def_aprp| () Bool (and (mem g_s231_286 NAT1) (mem g_s232_287 NAT1) (mem g_s233_288 NAT1) (mem g_s234_289 NAT1) (mem g_s235_290 NAT1) (mem g_s236_291 NAT1) (mem g_s237_292 NAT1) (mem g_s238_293 NAT1) (mem g_s239_294 NAT1) (mem g_s240_295 NAT1) (mem g_s241_296 NAT1) (mem g_s242_297 NAT1) (mem g_s243_298 NAT1) (mem g_s244_299 NAT1) (mem g_s245_300 NAT1) (mem g_s246_301 NAT1) (mem g_s247_302 NAT1) (mem g_s248_303 NAT1) (mem g_s249_304 NAT1) (mem g_s250_305 NAT1) (mem g_s251_306 NAT1) (mem g_s252_307 NAT1) (mem g_s253_308 NAT1) (mem g_s254_309 NAT1) (mem g_s255_310 NAT1) (mem g_s256_311 NAT1) (mem g_s257_312 NAT1) (mem g_s258_313 NAT1) (mem g_s259_314 NAT1) (mem g_s260_315 NAT1) (mem g_s261_316 NAT1) (mem g_s262_317 NAT1) (mem g_s263_318 NAT) (mem g_s264_319 NAT) (mem g_s265_320 NAT) (mem g_s266_321 NAT) (mem g_s267_322 NAT) (mem g_s268_323 NAT) (mem g_s269_324 NAT) (mem g_s270_325 NAT) (mem g_s271_326 NAT) (mem g_s272_327 NAT) (mem g_s273_328 NAT) (mem g_s274_329 NAT) (mem g_s275_330 NAT) (mem g_s276_331 NAT) (mem g_s277_332 NAT) (mem g_s278_333 NAT) (mem g_s279_334 NAT) (mem g_s280_335 NAT) (mem g_s281_336 NAT) (mem g_s282_337 NAT) (mem g_s283_338 NAT) (mem g_s284_339 NAT) (mem g_s285_340 NAT) (mem g_s286_341 NAT) (mem g_s287_342 NAT) (mem g_s288_343 NAT) (mem g_s289_344 NAT) (mem g_s290_345 NAT) (mem g_s291_346 NAT) (mem g_s292_347 NAT) (mem g_s293_348 INT) (mem g_s294_349 NAT) (|<=i| g_s245_300 g_s244_299) (|<=i| g_s248_303 g_s247_302) (|<=i| g_s251_306 g_s250_305) (|<=i| g_s254_309 g_s253_308) (|<=i| g_s259_314 g_s153_187) (|<=i| g_s260_315 g_s169_207) (|<=i| g_s261_316 g_s170_208) (|<=i| g_s255_310 g_s19_20) (|<=i| g_s256_311 g_s255_310) (= g_s263_318 e0) (= g_s264_319 e0) (= g_s265_320 e0) (= g_s266_321 e0) (= g_s267_322 e0) (= g_s268_323 e0) (= g_s269_324 e0) (= g_s270_325 e0) (= g_s271_326 e0) (= g_s272_327 e0) (= g_s273_328 e0) (= g_s274_329 e0) (= g_s275_330 e0) (= g_s276_331 e0) (= g_s277_332 e0) (= g_s278_333 e0) (= g_s279_334 e0) (= g_s280_335 e0) (= g_s281_336 e0) (= g_s282_337 e0) (= g_s283_338 e0) (= g_s284_339 e0) (= g_s285_340 e0) (= g_s286_341 e0) (= g_s287_342 e0) (= g_s288_343 e0) (= g_s289_344 e0) (= g_s290_345 e0) (= g_s291_346 e0) (= g_s292_347 e0) (= g_s293_348 g_s6_7) (= g_s294_349 g_s5_6)))
(define-fun |def_abs| () Bool true)
(define-fun |def_inv| () Bool true)
(define-fun |def_ass| () Bool true)
(define-fun |def_sets| () Bool true)
(define-fun |def_imlprp| () Bool (and (= g_s231_286 e215) (= g_s232_287 e152) (= g_s233_288 e136) (= g_s234_289 e138) (= g_s235_290 e271) (= g_s236_291 e136) (= g_s237_292 e350) (= g_s238_293 e215) (= g_s239_294 e136) (= g_s240_295 g_s160_195) (= g_s241_296 e49) (= g_s242_297 e49) (= g_s243_298 e206) (= g_s244_299 e22) (= g_s245_300 g_s191_234) (= g_s246_301 e351) (= g_s247_302 e22) (= g_s248_303 g_s193_236) (= g_s249_304 e206) (= g_s250_305 e22) (= g_s251_306 g_s196_239) (= g_s252_307 e352) (= g_s253_308 e22) (= g_s254_309 g_s211_259) (= g_s255_310 g_s19_20) (= g_s256_311 g_s255_310) (= g_s257_312 e271) (= g_s258_313 e271) (= g_s259_314 g_s153_187) (= g_s260_315 g_s169_207) (= g_s261_316 g_s170_208) (= g_s262_317 e174) (= g_s263_318 e0) (= g_s264_319 e0) (= g_s265_320 e0) (= g_s266_321 e0) (= g_s267_322 e0) (= g_s268_323 e0) (= g_s269_324 e0) (= g_s270_325 e0) (= g_s271_326 e0) (= g_s272_327 e0) (= g_s273_328 e0) (= g_s274_329 e0) (= g_s275_330 e0) (= g_s276_331 e0) (= g_s277_332 e0) (= g_s278_333 e0) (= g_s279_334 e0) (= g_s280_335 e0) (= g_s281_336 e0) (= g_s282_337 e0) (= g_s283_338 e0) (= g_s284_339 e0) (= g_s285_340 e0) (= g_s286_341 e0) (= g_s287_342 e0) (= g_s288_343 e0) (= g_s289_344 e0) (= g_s290_345 e0) (= g_s291_346 e0) (= g_s292_347 e0) (= g_s293_348 g_s6_7) (= g_s294_349 g_s5_6)))
(define-fun |def_imprp| () Bool true)
(define-fun |def_imext| () Bool true)
; PO group 0 
(assert |def_B definitions|)
(assert |def_ctx|)
(assert |def_imprp|)
; PO 1 in group 0
(push 1)
(assert (not (mem e0 NAT)))
(check-sat)
(pop 1)
; PO 2 in group 0
(push 1)
(assert (not (mem e136 NAT1)))
(set-info :status unknown)
(check-sat)
(pop 1)
; PO 3 in group 0
(push 1)
(assert (not (mem e138 NAT1)))
(set-info :status unknown)
(check-sat)
(pop 1)
; PO 4 in group 0
(push 1)
(assert (not (mem e215 NAT1)))
(set-info :status unknown)
(check-sat)
(pop 1)
; PO 5 in group 0
(push 1)
(assert (not (mem e152 NAT1)))
(set-info :status unknown)
(check-sat)
(pop 1)
; PO 6 in group 0
(push 1)
(assert (not (mem e271 NAT1)))
(set-info :status unknown)
(check-sat)
(pop 1)
; PO 7 in group 0
(push 1)
(assert (not (mem e350 NAT1)))
(set-info :status unknown)
(check-sat)
(pop 1)
; PO 8 in group 0
(push 1)
(assert (not (mem e206 NAT1)))
(set-info :status unknown)
(check-sat)
(pop 1)
; PO 9 in group 0
(push 1)
(assert (not (mem e352 NAT1)))
(set-info :status unknown)
(check-sat)
(pop 1)
; PO 10 in group 0
(push 1)
(assert (not (mem e351 NAT1)))
(set-info :status unknown)
(check-sat)
(pop 1)
; PO 11 in group 0
(push 1)
(assert (not (mem e22 NAT1)))
(set-info :status unknown)
(check-sat)
(pop 1)
; PO 12 in group 0
(push 1)
(assert (not (mem e174 NAT1)))
(set-info :status unknown)
(check-sat)
(pop 1)
; PO 13 in group 0
(push 1)
(assert (not (mem e49 NAT1)))
(set-info :status unknown)
(check-sat)
(pop 1)
; PO 14 in group 0
(push 1)
(assert (not (mem g_s6_7 INT)))
(set-info :status unknown)
(check-sat)
(pop 1)
; PO 15 in group 0
(push 1)
(assert (not (mem g_s5_6 NAT)))
(set-info :status unknown)
(check-sat)
(pop 1)
; PO 16 in group 0
(push 1)
(assert (not (mem g_s160_195 NAT1)))
(set-info :status unknown)
(check-sat)
(pop 1)
; PO 17 in group 0
(push 1)
(assert (not (mem g_s153_187 NAT1)))
(set-info :status unknown)
(check-sat)
(pop 1)
; PO 18 in group 0
(push 1)
(assert (not (mem g_s191_234 NAT1)))
(set-info :status unknown)
(check-sat)
(pop 1)
; PO 19 in group 0
(push 1)
(assert (not (mem g_s193_236 NAT1)))
(set-info :status unknown)
(check-sat)
(pop 1)
; PO 20 in group 0
(push 1)
(assert (not (mem g_s196_239 NAT1)))
(set-info :status unknown)
(check-sat)
(pop 1)
; PO 21 in group 0
(push 1)
(assert (not (mem g_s211_259 NAT1)))
(set-info :status unknown)
(check-sat)
(pop 1)
; PO 22 in group 0
(push 1)
(assert (not (mem g_s169_207 NAT1)))
(set-info :status unknown)
(check-sat)
(pop 1)
; PO 23 in group 0
(push 1)
(assert (not (mem g_s170_208 NAT1)))
(set-info :status unknown)
(check-sat)
(pop 1)
; PO 24 in group 0
(push 1)
(assert (not (|<=i| g_s153_187 g_s153_187)))
(set-info :status unknown)
(check-sat)
(pop 1)
; PO 25 in group 0
(push 1)
(assert (not (|<=i| g_s19_20 g_s19_20)))
(set-info :status unknown)
(check-sat)
(pop 1)
; PO 26 in group 0
(push 1)
(assert (not (|<=i| g_s191_234 e22)))
(set-info :status unknown)
(check-sat)
(pop 1)
; PO 27 in group 0
(push 1)
(assert (not (|<=i| g_s193_236 e22)))
(set-info :status unknown)
(check-sat)
(pop 1)
; PO 28 in group 0
(push 1)
(assert (not (|<=i| g_s196_239 e22)))
(set-info :status unknown)
(check-sat)
(pop 1)
; PO 29 in group 0
(push 1)
(assert (not (|<=i| g_s211_259 e22)))
(set-info :status unknown)
(check-sat)
(pop 1)
; PO 30 in group 0
(push 1)
(assert (not (|<=i| g_s169_207 g_s169_207)))
(set-info :status unknown)
(check-sat)
(pop 1)
; PO 31 in group 0
(push 1)
(assert (not (|<=i| g_s170_208 g_s170_208)))
(set-info :status unknown)
(check-sat)
(pop 1)
(exit)